905
7863
6762
1351
7383
2086
6851
1638
6281
8147
5129
2662
3815
10174
3231
2207
4720
5585
6768
4044
1131
6459
7030
6882
8859
9709
8065
6621
8474
9989
4996
9802
2966
3301
1780
1753
1632
8541
1778
7758
8307
8641
8069
8754
4668
8275
2241
1890
3564
5439
